



(declare-const TMP_BV_8 (_ BitVec 8))
(declare-const TMP_BV_16 (_ BitVec 16))
(declare-const TMP_BV_32 (_ BitVec 32))
(declare-const TMP_BV_64 (_ BitVec 64))
(declare-const TMP_BV_128 (_ BitVec 128))
(declare-const TMP_BV_256 (_ BitVec 256))
(declare-const TMP_BOOL Bool)
(declare-const rbx (_ BitVec 64))
(declare-const rax (_ BitVec 64))
(declare-const rcx (_ BitVec 64))
(declare-const rdx (_ BitVec 64))
(declare-const rsp (_ BitVec 64))
(declare-const rip (_ BitVec 64))
(declare-const ymm1 (_ BitVec 256))
(declare-const ymm2 (_ BitVec 256))
(declare-const ymm3 (_ BitVec 256))
(declare-const ymm0 (_ BitVec 256))
(declare-const zf Bool)
(declare-const sf Bool)
(declare-const cf Bool)
(declare-const pf Bool)
(declare-const af Bool)
(declare-const of Bool)

; Uninterpreted binary function declaration
(declare-fun comisd ((_ BitVec 64) (_ BitVec 64)) (_ BitVec 2))
(declare-fun comiss ((_ BitVec 32) (_ BitVec 32)) (_ BitVec 2))
(declare-fun    cvt_single_to_fp16_rm   ((_ BitVec 32) (_ BitVec 8)) (_ BitVec 16) )
(declare-fun    cvt_single_to_int32_rm  ((_ BitVec 32) (_ BitVec 8)) (_ BitVec 32) )
(declare-fun    cvt_double_to_int64_rm  ((_ BitVec 64) (_ BitVec 8)) (_ BitVec 64) )

(declare-fun add_double ((_ BitVec 64) (_ BitVec 64)) (_ BitVec 64))
(declare-fun add_single ((_ BitVec 32) (_ BitVec 32)) (_ BitVec 32))
(declare-fun sub_double ((_ BitVec 64) (_ BitVec 64)) (_ BitVec 64))
(declare-fun sub_single ((_ BitVec 32) (_ BitVec 32)) (_ BitVec 32))
(declare-fun div_double ((_ BitVec 64) (_ BitVec 64)) (_ BitVec 64))
(declare-fun div_single ((_ BitVec 32) (_ BitVec 32)) (_ BitVec 32))
(declare-fun mul_double ((_ BitVec 64) (_ BitVec 64)) (_ BitVec 64))
(declare-fun mul_single ((_ BitVec 32) (_ BitVec 32)) (_ BitVec 32))
(declare-fun maxcmp_double ((_ BitVec 64) (_ BitVec 64)) (_ BitVec 1))
(declare-fun maxcmp_single ((_ BitVec 32) (_ BitVec 32)) (_ BitVec 1))
(declare-fun mincmp_double ((_ BitVec 64) (_ BitVec 64)) (_ BitVec 1))
(declare-fun mincmp_single ((_ BitVec 32) (_ BitVec 32)) (_ BitVec 1))

(declare-fun idiv_quotient_int8   ((_ BitVec 16) (_ BitVec 8)) (_ BitVec 8))
(declare-fun idiv_remainder_int8  ((_ BitVec 16) (_ BitVec 8)) (_ BitVec 8))
(declare-fun idiv_quotient_int16  ((_ BitVec 32) (_ BitVec 16)) (_ BitVec 16))
(declare-fun idiv_remainder_int16 ((_ BitVec 32) (_ BitVec 16)) (_ BitVec 16))
(declare-fun idiv_quotient_int32  ((_ BitVec 64) (_ BitVec 32)) (_ BitVec 32))
(declare-fun idiv_remainder_int32 ((_ BitVec 64) (_ BitVec 32)) (_ BitVec 32))
(declare-fun idiv_quotient_int64  ((_ BitVec 128) (_ BitVec 64)) (_ BitVec 64))
(declare-fun idiv_remainder_int64 ((_ BitVec 128) (_ BitVec 64)) (_ BitVec 64))
(declare-fun div_quotient_int8   ((_ BitVec 16) (_ BitVec 8)) (_ BitVec 8))
(declare-fun div_remainder_int8  ((_ BitVec 16) (_ BitVec 8)) (_ BitVec 8))
(declare-fun div_quotient_int16  ((_ BitVec 32) (_ BitVec 16)) (_ BitVec 16))
(declare-fun div_remainder_int16 ((_ BitVec 32) (_ BitVec 16)) (_ BitVec 16))
(declare-fun div_quotient_int32  ((_ BitVec 64) (_ BitVec 32)) (_ BitVec 32))
(declare-fun div_remainder_int32 ((_ BitVec 64) (_ BitVec 32)) (_ BitVec 32))
(declare-fun div_quotient_int64  ((_ BitVec 128) (_ BitVec 64)) (_ BitVec 64))
(declare-fun div_remainder_int64 ((_ BitVec 128) (_ BitVec 64)) (_ BitVec 64))

; Uninterpreted unary function declaration
(declare-fun    cvt_half_to_single      ((_ BitVec 16)) (_ BitVec 32) )
(declare-fun    cvt_double_to_int64_truncate     ((_ BitVec 64)) (_ BitVec 64) )
(declare-fun    cvt_single_to_int64_truncate     ((_ BitVec 32)) (_ BitVec 64) )

(declare-fun approx_reciprocal_double       ((_ BitVec 64)) (_ BitVec 64) )
(declare-fun approx_reciprocal_single       ((_ BitVec 32)) (_ BitVec 32) )
(declare-fun sqrt_double                    ((_ BitVec 64)) (_ BitVec 64) )
(declare-fun sqrt_single                    ((_ BitVec 32)) (_ BitVec 32) )
(declare-fun approx_reciprocal_sqrt_double  ((_ BitVec 64)) (_ BitVec 64) )
(declare-fun approx_reciprocal_sqrt_single  ((_ BitVec 32)) (_ BitVec 32) )

(declare-fun cvt_single_to_double           ((_ BitVec 32)) (_ BitVec 64) )
(declare-fun cvt_double_to_single           ((_ BitVec 64)) (_ BitVec 32) )

(declare-fun cvt_single_to_int32            ((_ BitVec 32)) (_ BitVec 32) )
(declare-fun cvt_single_to_int32_truncate   ((_ BitVec 32)) (_ BitVec 32) )
(declare-fun cvt_single_to_int64            ((_ BitVec 32)) (_ BitVec 64) )
(declare-fun cvt_double_to_int32            ((_ BitVec 64)) (_ BitVec 32) )
(declare-fun cvt_double_to_int32_truncate   ((_ BitVec 64)) (_ BitVec 32) )
(declare-fun cvt_double_to_int64            ((_ BitVec 64)) (_ BitVec 64) )

(declare-fun cvt_int32_to_single            ((_ BitVec 32)) (_ BitVec 32) )
(declare-fun cvt_int32_to_double            ((_ BitVec 32)) (_ BitVec 64) )
(declare-fun cvt_int64_to_single            ((_ BitVec 64)) (_ BitVec 32) )
(declare-fun cvt_int64_to_double            ((_ BitVec 64)) (_ BitVec 64) )

; Uninterpreted ternary function declaration
(declare-fun cmp_double_pred ((_ BitVec 64) (_ BitVec 64) (_ BitVec 8)) (_ BitVec 1))
(declare-fun cmp_single_pred ((_ BitVec 32) (_ BitVec 32) (_ BitVec 8)) (_ BitVec 1))

(declare-fun vfmadd132_double ((_ BitVec 64) (_ BitVec 64) (_ BitVec 64)) (_ BitVec 64))
(declare-fun vfmadd132_single ((_ BitVec 32) (_ BitVec 32) (_ BitVec 32)) (_ BitVec 32))
(declare-fun vfmadd231_double ((_ BitVec 64) (_ BitVec 64) (_ BitVec 64)) (_ BitVec 64))
(declare-fun vfmadd231_single ((_ BitVec 32) (_ BitVec 32) (_ BitVec 32)) (_ BitVec 32))
(declare-fun vfmadd213_double ((_ BitVec 64) (_ BitVec 64) (_ BitVec 64)) (_ BitVec 64))
(declare-fun vfmadd213_single ((_ BitVec 32) (_ BitVec 32) (_ BitVec 32)) (_ BitVec 32))
(declare-fun vfmsub132_double ((_ BitVec 64) (_ BitVec 64) (_ BitVec 64)) (_ BitVec 64))
(declare-fun vfmsub132_single ((_ BitVec 32) (_ BitVec 32) (_ BitVec 32)) (_ BitVec 32))
(declare-fun vfmsub231_double ((_ BitVec 64) (_ BitVec 64) (_ BitVec 64)) (_ BitVec 64))
(declare-fun vfmsub231_single ((_ BitVec 32) (_ BitVec 32) (_ BitVec 32)) (_ BitVec 32))
(declare-fun vfmsub213_double ((_ BitVec 64) (_ BitVec 64) (_ BitVec 64)) (_ BitVec 64))
(declare-fun vfmsub213_single ((_ BitVec 32) (_ BitVec 32) (_ BitVec 32)) (_ BitVec 32))
(declare-fun vfnmadd132_double ((_ BitVec 64) (_ BitVec 64) (_ BitVec 64)) (_ BitVec 64))
(declare-fun vfnmadd132_single ((_ BitVec 32) (_ BitVec 32) (_ BitVec 32)) (_ BitVec 32))
(declare-fun vfnmsub132_double ((_ BitVec 64) (_ BitVec 64) (_ BitVec 64)) (_ BitVec 64))
(declare-fun vfnmsub132_single ((_ BitVec 32) (_ BitVec 32) (_ BitVec 32)) (_ BitVec 32))


( push )
( echo "bzhiq_r64_m64_r64::af")
(assert (not (=
TMP_BOOL

TMP_BOOL
)))
(check-sat)
( pop )



( push )
( echo "bzhiq_r64_m64_r64::cf")
(assert (not (=
(bvuge ((_ extract 7 0) rdx) #x40)

(bvuge ((_ extract 7 0) rdx) #x40)
)))
(check-sat)
( pop )



( push )
( echo "bzhiq_r64_m64_r64::of")
(assert (not (=
false

false
)))
(check-sat)
( pop )



( push )
( echo "bzhiq_r64_m64_r64::pf")
(assert (not (=
TMP_BOOL

TMP_BOOL
)))
(check-sat)
( pop )



( push )
( echo "bzhiq_r64_m64_r64::rbx")
(assert (not (=
(let ((a!1 (ite (= ((_ extract 7 0) rdx) #x02)
(concat #b00000000000000000000000000000000000000000000000000000000000000
((_ extract 1 0) TMP_BV_64))
(ite (= ((_ extract 7 0) rdx) #x01)
(concat #b000000000000000000000000000000000000000000000000000000000000000
((_ extract 0 0) TMP_BV_64))
#x0000000000000000))))
(let ((a!2 (ite (= ((_ extract 7 0) rdx) #x04)
(concat #x000000000000000 ((_ extract 3 0) TMP_BV_64))
(ite (= ((_ extract 7 0) rdx) #x03)
(concat #b0000000000000000000000000000000000000000000000000000000000000
((_ extract 2 0) TMP_BV_64))
a!1))))
(let ((a!3 (ite (= ((_ extract 7 0) rdx) #x06)
(concat #b0000000000000000000000000000000000000000000000000000000000
((_ extract 5 0) TMP_BV_64))
(ite (= ((_ extract 7 0) rdx) #x05)
(concat #b00000000000000000000000000000000000000000000000000000000000
((_ extract 4 0) TMP_BV_64))
a!2))))
(let ((a!4 (ite (= ((_ extract 7 0) rdx) #x08)
(concat #x00000000000000 ((_ extract 7 0) TMP_BV_64))
(ite (= ((_ extract 7 0) rdx) #x07)
(concat #b000000000000000000000000000000000000000000000000000000000
((_ extract 6 0) TMP_BV_64))
a!3))))
(let ((a!5 (ite (= ((_ extract 7 0) rdx) #x0a)
(concat #b000000000000000000000000000000000000000000000000000000
((_ extract 9 0) TMP_BV_64))
(ite (= ((_ extract 7 0) rdx) #x09)
(concat #b0000000000000000000000000000000000000000000000000000000
((_ extract 8 0) TMP_BV_64))
a!4))))
(let ((a!6 (ite (= ((_ extract 7 0) rdx) #x0c)
(concat #x0000000000000 ((_ extract 11 0) TMP_BV_64))
(ite (= ((_ extract 7 0) rdx) #x0b)
(concat #b00000000000000000000000000000000000000000000000000000
((_ extract 10 0) TMP_BV_64))
a!5))))
(let ((a!7 (ite (= ((_ extract 7 0) rdx) #x0e)
(concat #b00000000000000000000000000000000000000000000000000
((_ extract 13 0) TMP_BV_64))
(ite (= ((_ extract 7 0) rdx) #x0d)
(concat #b000000000000000000000000000000000000000000000000000
((_ extract 12 0) TMP_BV_64))
a!6))))
(let ((a!8 (ite (= ((_ extract 7 0) rdx) #x10)
(concat #x000000000000 ((_ extract 15 0) TMP_BV_64))
(ite (= ((_ extract 7 0) rdx) #x0f)
(concat #b0000000000000000000000000000000000000000000000000
((_ extract 14 0) TMP_BV_64))
a!7))))
(let ((a!9 (ite (= ((_ extract 7 0) rdx) #x12)
(concat #b0000000000000000000000000000000000000000000000
((_ extract 17 0) TMP_BV_64))
(ite (= ((_ extract 7 0) rdx) #x11)
(concat #b00000000000000000000000000000000000000000000000
((_ extract 16 0) TMP_BV_64))
a!8))))
(let ((a!10 (ite (= ((_ extract 7 0) rdx) #x14)
(concat #x00000000000 ((_ extract 19 0) TMP_BV_64))
(ite (= ((_ extract 7 0) rdx) #x13)
(concat #b000000000000000000000000000000000000000000000
((_ extract 18 0) TMP_BV_64))
a!9))))
(let ((a!11 (ite (= ((_ extract 7 0) rdx) #x16)
(concat #b000000000000000000000000000000000000000000
((_ extract 21 0) TMP_BV_64))
(ite (= ((_ extract 7 0) rdx) #x15)
(concat #b0000000000000000000000000000000000000000000
((_ extract 20 0) TMP_BV_64))
a!10))))
(let ((a!12 (ite (= ((_ extract 7 0) rdx) #x18)
(concat #x0000000000 ((_ extract 23 0) TMP_BV_64))
(ite (= ((_ extract 7 0) rdx) #x17)
(concat #b00000000000000000000000000000000000000000
((_ extract 22 0) TMP_BV_64))
a!11))))
(let ((a!13 (ite (= ((_ extract 7 0) rdx) #x1a)
(concat #b00000000000000000000000000000000000000
((_ extract 25 0) TMP_BV_64))
(ite (= ((_ extract 7 0) rdx) #x19)
(concat #b000000000000000000000000000000000000000
((_ extract 24 0) TMP_BV_64))
a!12))))
(let ((a!14 (ite (= ((_ extract 7 0) rdx) #x1c)
(concat #x000000000 ((_ extract 27 0) TMP_BV_64))
(ite (= ((_ extract 7 0) rdx) #x1b)
(concat #b0000000000000000000000000000000000000
((_ extract 26 0) TMP_BV_64))
a!13))))
(let ((a!15 (ite (= ((_ extract 7 0) rdx) #x1e)
(concat #b0000000000000000000000000000000000
((_ extract 29 0) TMP_BV_64))
(ite (= ((_ extract 7 0) rdx) #x1d)
(concat #b00000000000000000000000000000000000
((_ extract 28 0) TMP_BV_64))
a!14))))
(let ((a!16 (ite (= ((_ extract 7 0) rdx) #x20)
(concat #x00000000 ((_ extract 31 0) TMP_BV_64))
(ite (= ((_ extract 7 0) rdx) #x1f)
(concat #b000000000000000000000000000000000
((_ extract 30 0) TMP_BV_64))
a!15))))
(let ((a!17 (ite (= ((_ extract 7 0) rdx) #x22)
(concat #b000000000000000000000000000000
((_ extract 33 0) TMP_BV_64))
(ite (= ((_ extract 7 0) rdx) #x21)
(concat #b0000000000000000000000000000000
((_ extract 32 0) TMP_BV_64))
a!16))))
(let ((a!18 (ite (= ((_ extract 7 0) rdx) #x24)
(concat #x0000000 ((_ extract 35 0) TMP_BV_64))
(ite (= ((_ extract 7 0) rdx) #x23)
(concat #b00000000000000000000000000000
((_ extract 34 0) TMP_BV_64))
a!17))))
(let ((a!19 (ite (= ((_ extract 7 0) rdx) #x26)
(concat #b00000000000000000000000000
((_ extract 37 0) TMP_BV_64))
(ite (= ((_ extract 7 0) rdx) #x25)
(concat #b000000000000000000000000000
((_ extract 36 0) TMP_BV_64))
a!18))))
(let ((a!20 (ite (= ((_ extract 7 0) rdx) #x28)
(concat #x000000 ((_ extract 39 0) TMP_BV_64))
(ite (= ((_ extract 7 0) rdx) #x27)
(concat #b0000000000000000000000000
((_ extract 38 0) TMP_BV_64))
a!19))))
(let ((a!21 (ite (= ((_ extract 7 0) rdx) #x2a)
(concat #b0000000000000000000000
((_ extract 41 0) TMP_BV_64))
(ite (= ((_ extract 7 0) rdx) #x29)
(concat #b00000000000000000000000
((_ extract 40 0) TMP_BV_64))
a!20))))
(let ((a!22 (ite (= ((_ extract 7 0) rdx) #x2c)
(concat #x00000 ((_ extract 43 0) TMP_BV_64))
(ite (= ((_ extract 7 0) rdx) #x2b)
(concat #b000000000000000000000
((_ extract 42 0) TMP_BV_64))
a!21))))
(let ((a!23 (ite (= ((_ extract 7 0) rdx) #x2e)
(concat #b000000000000000000 ((_ extract 45 0) TMP_BV_64))
(ite (= ((_ extract 7 0) rdx) #x2d)
(concat #b0000000000000000000
((_ extract 44 0) TMP_BV_64))
a!22))))
(let ((a!24 (ite (= ((_ extract 7 0) rdx) #x30)
(concat #x0000 ((_ extract 47 0) TMP_BV_64))
(ite (= ((_ extract 7 0) rdx) #x2f)
(concat #b00000000000000000
((_ extract 46 0) TMP_BV_64))
a!23))))
(let ((a!25 (ite (= ((_ extract 7 0) rdx) #x32)
(concat #b00000000000000 ((_ extract 49 0) TMP_BV_64))
(ite (= ((_ extract 7 0) rdx) #x31)
(concat #b000000000000000 ((_ extract 48 0) TMP_BV_64))
a!24))))
(let ((a!26 (ite (= ((_ extract 7 0) rdx) #x34)
(concat #x000 ((_ extract 51 0) TMP_BV_64))
(ite (= ((_ extract 7 0) rdx) #x33)
(concat #b0000000000000 ((_ extract 50 0) TMP_BV_64))
a!25))))
(let ((a!27 (ite (= ((_ extract 7 0) rdx) #x36)
(concat #b0000000000 ((_ extract 53 0) TMP_BV_64))
(ite (= ((_ extract 7 0) rdx) #x35)
(concat #b00000000000 ((_ extract 52 0) TMP_BV_64))
a!26))))
(let ((a!28 (ite (= ((_ extract 7 0) rdx) #x38)
(concat #x00 ((_ extract 55 0) TMP_BV_64))
(ite (= ((_ extract 7 0) rdx) #x37)
(concat #b000000000 ((_ extract 54 0) TMP_BV_64))
a!27))))
(let ((a!29 (ite (= ((_ extract 7 0) rdx) #x3a)
(concat #b000000 ((_ extract 57 0) TMP_BV_64))
(ite (= ((_ extract 7 0) rdx) #x39)
(concat #b0000000 ((_ extract 56 0) TMP_BV_64))
a!28))))
(let ((a!30 (ite (= ((_ extract 7 0) rdx) #x3c)
(concat #x0 ((_ extract 59 0) TMP_BV_64))
(ite (= ((_ extract 7 0) rdx) #x3b)
(concat #b00000 ((_ extract 58 0) TMP_BV_64))
a!29))))
(let ((a!31 (ite (= ((_ extract 7 0) rdx) #x3e)
(concat #b00 ((_ extract 61 0) TMP_BV_64))
(ite (= ((_ extract 7 0) rdx) #x3d)
(concat #b000 ((_ extract 60 0) TMP_BV_64))
a!30))))
(ite (bvult ((_ extract 7 0) rdx) #x40)
(ite (= ((_ extract 7 0) rdx) #x3f)
(concat #b0 ((_ extract 62 0) TMP_BV_64))
a!31)
TMP_BV_64))))))))))))))))))))))))))))))))

(let ((a!1 (ite (= ((_ extract 7 0) rdx) #x02)
(concat #b00000000000000000000000000000000000000000000000000000000000000
((_ extract 1 0) TMP_BV_64))
(ite (= ((_ extract 7 0) rdx) #x01)
(concat #b000000000000000000000000000000000000000000000000000000000000000
((_ extract 0 0) TMP_BV_64))
#x0000000000000000))))
(let ((a!2 (ite (= ((_ extract 7 0) rdx) #x04)
(concat #x000000000000000 ((_ extract 3 0) TMP_BV_64))
(ite (= ((_ extract 7 0) rdx) #x03)
(concat #b0000000000000000000000000000000000000000000000000000000000000
((_ extract 2 0) TMP_BV_64))
a!1))))
(let ((a!3 (ite (= ((_ extract 7 0) rdx) #x06)
(concat #b0000000000000000000000000000000000000000000000000000000000
((_ extract 5 0) TMP_BV_64))
(ite (= ((_ extract 7 0) rdx) #x05)
(concat #b00000000000000000000000000000000000000000000000000000000000
((_ extract 4 0) TMP_BV_64))
a!2))))
(let ((a!4 (ite (= ((_ extract 7 0) rdx) #x08)
(concat #x00000000000000 ((_ extract 7 0) TMP_BV_64))
(ite (= ((_ extract 7 0) rdx) #x07)
(concat #b000000000000000000000000000000000000000000000000000000000
((_ extract 6 0) TMP_BV_64))
a!3))))
(let ((a!5 (ite (= ((_ extract 7 0) rdx) #x0a)
(concat #b000000000000000000000000000000000000000000000000000000
((_ extract 9 0) TMP_BV_64))
(ite (= ((_ extract 7 0) rdx) #x09)
(concat #b0000000000000000000000000000000000000000000000000000000
((_ extract 8 0) TMP_BV_64))
a!4))))
(let ((a!6 (ite (= ((_ extract 7 0) rdx) #x0c)
(concat #x0000000000000 ((_ extract 11 0) TMP_BV_64))
(ite (= ((_ extract 7 0) rdx) #x0b)
(concat #b00000000000000000000000000000000000000000000000000000
((_ extract 10 0) TMP_BV_64))
a!5))))
(let ((a!7 (ite (= ((_ extract 7 0) rdx) #x0e)
(concat #b00000000000000000000000000000000000000000000000000
((_ extract 13 0) TMP_BV_64))
(ite (= ((_ extract 7 0) rdx) #x0d)
(concat #b000000000000000000000000000000000000000000000000000
((_ extract 12 0) TMP_BV_64))
a!6))))
(let ((a!8 (ite (= ((_ extract 7 0) rdx) #x10)
(concat #x000000000000 ((_ extract 15 0) TMP_BV_64))
(ite (= ((_ extract 7 0) rdx) #x0f)
(concat #b0000000000000000000000000000000000000000000000000
((_ extract 14 0) TMP_BV_64))
a!7))))
(let ((a!9 (ite (= ((_ extract 7 0) rdx) #x12)
(concat #b0000000000000000000000000000000000000000000000
((_ extract 17 0) TMP_BV_64))
(ite (= ((_ extract 7 0) rdx) #x11)
(concat #b00000000000000000000000000000000000000000000000
((_ extract 16 0) TMP_BV_64))
a!8))))
(let ((a!10 (ite (= ((_ extract 7 0) rdx) #x14)
(concat #x00000000000 ((_ extract 19 0) TMP_BV_64))
(ite (= ((_ extract 7 0) rdx) #x13)
(concat #b000000000000000000000000000000000000000000000
((_ extract 18 0) TMP_BV_64))
a!9))))
(let ((a!11 (ite (= ((_ extract 7 0) rdx) #x16)
(concat #b000000000000000000000000000000000000000000
((_ extract 21 0) TMP_BV_64))
(ite (= ((_ extract 7 0) rdx) #x15)
(concat #b0000000000000000000000000000000000000000000
((_ extract 20 0) TMP_BV_64))
a!10))))
(let ((a!12 (ite (= ((_ extract 7 0) rdx) #x18)
(concat #x0000000000 ((_ extract 23 0) TMP_BV_64))
(ite (= ((_ extract 7 0) rdx) #x17)
(concat #b00000000000000000000000000000000000000000
((_ extract 22 0) TMP_BV_64))
a!11))))
(let ((a!13 (ite (= ((_ extract 7 0) rdx) #x1a)
(concat #b00000000000000000000000000000000000000
((_ extract 25 0) TMP_BV_64))
(ite (= ((_ extract 7 0) rdx) #x19)
(concat #b000000000000000000000000000000000000000
((_ extract 24 0) TMP_BV_64))
a!12))))
(let ((a!14 (ite (= ((_ extract 7 0) rdx) #x1c)
(concat #x000000000 ((_ extract 27 0) TMP_BV_64))
(ite (= ((_ extract 7 0) rdx) #x1b)
(concat #b0000000000000000000000000000000000000
((_ extract 26 0) TMP_BV_64))
a!13))))
(let ((a!15 (ite (= ((_ extract 7 0) rdx) #x1e)
(concat #b0000000000000000000000000000000000
((_ extract 29 0) TMP_BV_64))
(ite (= ((_ extract 7 0) rdx) #x1d)
(concat #b00000000000000000000000000000000000
((_ extract 28 0) TMP_BV_64))
a!14))))
(let ((a!16 (ite (= ((_ extract 7 0) rdx) #x20)
(concat #x00000000 ((_ extract 31 0) TMP_BV_64))
(ite (= ((_ extract 7 0) rdx) #x1f)
(concat #b000000000000000000000000000000000
((_ extract 30 0) TMP_BV_64))
a!15))))
(let ((a!17 (ite (= ((_ extract 7 0) rdx) #x22)
(concat #b000000000000000000000000000000
((_ extract 33 0) TMP_BV_64))
(ite (= ((_ extract 7 0) rdx) #x21)
(concat #b0000000000000000000000000000000
((_ extract 32 0) TMP_BV_64))
a!16))))
(let ((a!18 (ite (= ((_ extract 7 0) rdx) #x24)
(concat #x0000000 ((_ extract 35 0) TMP_BV_64))
(ite (= ((_ extract 7 0) rdx) #x23)
(concat #b00000000000000000000000000000
((_ extract 34 0) TMP_BV_64))
a!17))))
(let ((a!19 (ite (= ((_ extract 7 0) rdx) #x26)
(concat #b00000000000000000000000000
((_ extract 37 0) TMP_BV_64))
(ite (= ((_ extract 7 0) rdx) #x25)
(concat #b000000000000000000000000000
((_ extract 36 0) TMP_BV_64))
a!18))))
(let ((a!20 (ite (= ((_ extract 7 0) rdx) #x28)
(concat #x000000 ((_ extract 39 0) TMP_BV_64))
(ite (= ((_ extract 7 0) rdx) #x27)
(concat #b0000000000000000000000000
((_ extract 38 0) TMP_BV_64))
a!19))))
(let ((a!21 (ite (= ((_ extract 7 0) rdx) #x2a)
(concat #b0000000000000000000000
((_ extract 41 0) TMP_BV_64))
(ite (= ((_ extract 7 0) rdx) #x29)
(concat #b00000000000000000000000
((_ extract 40 0) TMP_BV_64))
a!20))))
(let ((a!22 (ite (= ((_ extract 7 0) rdx) #x2c)
(concat #x00000 ((_ extract 43 0) TMP_BV_64))
(ite (= ((_ extract 7 0) rdx) #x2b)
(concat #b000000000000000000000
((_ extract 42 0) TMP_BV_64))
a!21))))
(let ((a!23 (ite (= ((_ extract 7 0) rdx) #x2e)
(concat #b000000000000000000 ((_ extract 45 0) TMP_BV_64))
(ite (= ((_ extract 7 0) rdx) #x2d)
(concat #b0000000000000000000
((_ extract 44 0) TMP_BV_64))
a!22))))
(let ((a!24 (ite (= ((_ extract 7 0) rdx) #x30)
(concat #x0000 ((_ extract 47 0) TMP_BV_64))
(ite (= ((_ extract 7 0) rdx) #x2f)
(concat #b00000000000000000
((_ extract 46 0) TMP_BV_64))
a!23))))
(let ((a!25 (ite (= ((_ extract 7 0) rdx) #x32)
(concat #b00000000000000 ((_ extract 49 0) TMP_BV_64))
(ite (= ((_ extract 7 0) rdx) #x31)
(concat #b000000000000000 ((_ extract 48 0) TMP_BV_64))
a!24))))
(let ((a!26 (ite (= ((_ extract 7 0) rdx) #x34)
(concat #x000 ((_ extract 51 0) TMP_BV_64))
(ite (= ((_ extract 7 0) rdx) #x33)
(concat #b0000000000000 ((_ extract 50 0) TMP_BV_64))
a!25))))
(let ((a!27 (ite (= ((_ extract 7 0) rdx) #x36)
(concat #b0000000000 ((_ extract 53 0) TMP_BV_64))
(ite (= ((_ extract 7 0) rdx) #x35)
(concat #b00000000000 ((_ extract 52 0) TMP_BV_64))
a!26))))
(let ((a!28 (ite (= ((_ extract 7 0) rdx) #x38)
(concat #x00 ((_ extract 55 0) TMP_BV_64))
(ite (= ((_ extract 7 0) rdx) #x37)
(concat #b000000000 ((_ extract 54 0) TMP_BV_64))
a!27))))
(let ((a!29 (ite (= ((_ extract 7 0) rdx) #x3a)
(concat #b000000 ((_ extract 57 0) TMP_BV_64))
(ite (= ((_ extract 7 0) rdx) #x39)
(concat #b0000000 ((_ extract 56 0) TMP_BV_64))
a!28))))
(let ((a!30 (ite (= ((_ extract 7 0) rdx) #x3c)
(concat #x0 ((_ extract 59 0) TMP_BV_64))
(ite (= ((_ extract 7 0) rdx) #x3b)
(concat #b00000 ((_ extract 58 0) TMP_BV_64))
a!29))))
(let ((a!31 (ite (= ((_ extract 7 0) rdx) #x3e)
(concat #b00 ((_ extract 61 0) TMP_BV_64))
(ite (= ((_ extract 7 0) rdx) #x3d)
(concat #b000 ((_ extract 60 0) TMP_BV_64))
a!30))))
(ite (bvult ((_ extract 7 0) rdx) #x40)
(ite (= ((_ extract 7 0) rdx) #x3f)
(concat #b0 ((_ extract 62 0) TMP_BV_64))
a!31)
TMP_BV_64))))))))))))))))))))))))))))))))
)))
(check-sat)
( pop )



( push )
( echo "bzhiq_r64_m64_r64::sf")
(assert (not (=
(= (ite (bvult ((_ extract 7 0) rdx) #x40) #b0 ((_ extract 63 63) TMP_BV_64))
#b1)

(= (ite (bvult ((_ extract 7 0) rdx) #x40) #b0 ((_ extract 63 63) TMP_BV_64))
#b1)
)))
(check-sat)
( pop )



( push )
( echo "bzhiq_r64_m64_r64::zf")
(assert (not (=
(let ((a!1 (ite (= ((_ extract 7 0) rdx) #x02)
(concat #b00000000000000000000000000000000000000000000000000000000000000
((_ extract 1 0) TMP_BV_64))
(ite (= ((_ extract 7 0) rdx) #x01)
(concat #b000000000000000000000000000000000000000000000000000000000000000
((_ extract 0 0) TMP_BV_64))
#x0000000000000000))))
(let ((a!2 (ite (= ((_ extract 7 0) rdx) #x04)
(concat #x000000000000000 ((_ extract 3 0) TMP_BV_64))
(ite (= ((_ extract 7 0) rdx) #x03)
(concat #b0000000000000000000000000000000000000000000000000000000000000
((_ extract 2 0) TMP_BV_64))
a!1))))
(let ((a!3 (ite (= ((_ extract 7 0) rdx) #x06)
(concat #b0000000000000000000000000000000000000000000000000000000000
((_ extract 5 0) TMP_BV_64))
(ite (= ((_ extract 7 0) rdx) #x05)
(concat #b00000000000000000000000000000000000000000000000000000000000
((_ extract 4 0) TMP_BV_64))
a!2))))
(let ((a!4 (ite (= ((_ extract 7 0) rdx) #x08)
(concat #x00000000000000 ((_ extract 7 0) TMP_BV_64))
(ite (= ((_ extract 7 0) rdx) #x07)
(concat #b000000000000000000000000000000000000000000000000000000000
((_ extract 6 0) TMP_BV_64))
a!3))))
(let ((a!5 (ite (= ((_ extract 7 0) rdx) #x0a)
(concat #b000000000000000000000000000000000000000000000000000000
((_ extract 9 0) TMP_BV_64))
(ite (= ((_ extract 7 0) rdx) #x09)
(concat #b0000000000000000000000000000000000000000000000000000000
((_ extract 8 0) TMP_BV_64))
a!4))))
(let ((a!6 (ite (= ((_ extract 7 0) rdx) #x0c)
(concat #x0000000000000 ((_ extract 11 0) TMP_BV_64))
(ite (= ((_ extract 7 0) rdx) #x0b)
(concat #b00000000000000000000000000000000000000000000000000000
((_ extract 10 0) TMP_BV_64))
a!5))))
(let ((a!7 (ite (= ((_ extract 7 0) rdx) #x0e)
(concat #b00000000000000000000000000000000000000000000000000
((_ extract 13 0) TMP_BV_64))
(ite (= ((_ extract 7 0) rdx) #x0d)
(concat #b000000000000000000000000000000000000000000000000000
((_ extract 12 0) TMP_BV_64))
a!6))))
(let ((a!8 (ite (= ((_ extract 7 0) rdx) #x10)
(concat #x000000000000 ((_ extract 15 0) TMP_BV_64))
(ite (= ((_ extract 7 0) rdx) #x0f)
(concat #b0000000000000000000000000000000000000000000000000
((_ extract 14 0) TMP_BV_64))
a!7))))
(let ((a!9 (ite (= ((_ extract 7 0) rdx) #x12)
(concat #b0000000000000000000000000000000000000000000000
((_ extract 17 0) TMP_BV_64))
(ite (= ((_ extract 7 0) rdx) #x11)
(concat #b00000000000000000000000000000000000000000000000
((_ extract 16 0) TMP_BV_64))
a!8))))
(let ((a!10 (ite (= ((_ extract 7 0) rdx) #x14)
(concat #x00000000000 ((_ extract 19 0) TMP_BV_64))
(ite (= ((_ extract 7 0) rdx) #x13)
(concat #b000000000000000000000000000000000000000000000
((_ extract 18 0) TMP_BV_64))
a!9))))
(let ((a!11 (ite (= ((_ extract 7 0) rdx) #x16)
(concat #b000000000000000000000000000000000000000000
((_ extract 21 0) TMP_BV_64))
(ite (= ((_ extract 7 0) rdx) #x15)
(concat #b0000000000000000000000000000000000000000000
((_ extract 20 0) TMP_BV_64))
a!10))))
(let ((a!12 (ite (= ((_ extract 7 0) rdx) #x18)
(concat #x0000000000 ((_ extract 23 0) TMP_BV_64))
(ite (= ((_ extract 7 0) rdx) #x17)
(concat #b00000000000000000000000000000000000000000
((_ extract 22 0) TMP_BV_64))
a!11))))
(let ((a!13 (ite (= ((_ extract 7 0) rdx) #x1a)
(concat #b00000000000000000000000000000000000000
((_ extract 25 0) TMP_BV_64))
(ite (= ((_ extract 7 0) rdx) #x19)
(concat #b000000000000000000000000000000000000000
((_ extract 24 0) TMP_BV_64))
a!12))))
(let ((a!14 (ite (= ((_ extract 7 0) rdx) #x1c)
(concat #x000000000 ((_ extract 27 0) TMP_BV_64))
(ite (= ((_ extract 7 0) rdx) #x1b)
(concat #b0000000000000000000000000000000000000
((_ extract 26 0) TMP_BV_64))
a!13))))
(let ((a!15 (ite (= ((_ extract 7 0) rdx) #x1e)
(concat #b0000000000000000000000000000000000
((_ extract 29 0) TMP_BV_64))
(ite (= ((_ extract 7 0) rdx) #x1d)
(concat #b00000000000000000000000000000000000
((_ extract 28 0) TMP_BV_64))
a!14))))
(let ((a!16 (ite (= ((_ extract 7 0) rdx) #x20)
(concat #x00000000 ((_ extract 31 0) TMP_BV_64))
(ite (= ((_ extract 7 0) rdx) #x1f)
(concat #b000000000000000000000000000000000
((_ extract 30 0) TMP_BV_64))
a!15))))
(let ((a!17 (ite (= ((_ extract 7 0) rdx) #x22)
(concat #b000000000000000000000000000000
((_ extract 33 0) TMP_BV_64))
(ite (= ((_ extract 7 0) rdx) #x21)
(concat #b0000000000000000000000000000000
((_ extract 32 0) TMP_BV_64))
a!16))))
(let ((a!18 (ite (= ((_ extract 7 0) rdx) #x24)
(concat #x0000000 ((_ extract 35 0) TMP_BV_64))
(ite (= ((_ extract 7 0) rdx) #x23)
(concat #b00000000000000000000000000000
((_ extract 34 0) TMP_BV_64))
a!17))))
(let ((a!19 (ite (= ((_ extract 7 0) rdx) #x26)
(concat #b00000000000000000000000000
((_ extract 37 0) TMP_BV_64))
(ite (= ((_ extract 7 0) rdx) #x25)
(concat #b000000000000000000000000000
((_ extract 36 0) TMP_BV_64))
a!18))))
(let ((a!20 (ite (= ((_ extract 7 0) rdx) #x28)
(concat #x000000 ((_ extract 39 0) TMP_BV_64))
(ite (= ((_ extract 7 0) rdx) #x27)
(concat #b0000000000000000000000000
((_ extract 38 0) TMP_BV_64))
a!19))))
(let ((a!21 (ite (= ((_ extract 7 0) rdx) #x2a)
(concat #b0000000000000000000000
((_ extract 41 0) TMP_BV_64))
(ite (= ((_ extract 7 0) rdx) #x29)
(concat #b00000000000000000000000
((_ extract 40 0) TMP_BV_64))
a!20))))
(let ((a!22 (ite (= ((_ extract 7 0) rdx) #x2c)
(concat #x00000 ((_ extract 43 0) TMP_BV_64))
(ite (= ((_ extract 7 0) rdx) #x2b)
(concat #b000000000000000000000
((_ extract 42 0) TMP_BV_64))
a!21))))
(let ((a!23 (ite (= ((_ extract 7 0) rdx) #x2e)
(concat #b000000000000000000 ((_ extract 45 0) TMP_BV_64))
(ite (= ((_ extract 7 0) rdx) #x2d)
(concat #b0000000000000000000
((_ extract 44 0) TMP_BV_64))
a!22))))
(let ((a!24 (ite (= ((_ extract 7 0) rdx) #x30)
(concat #x0000 ((_ extract 47 0) TMP_BV_64))
(ite (= ((_ extract 7 0) rdx) #x2f)
(concat #b00000000000000000
((_ extract 46 0) TMP_BV_64))
a!23))))
(let ((a!25 (ite (= ((_ extract 7 0) rdx) #x32)
(concat #b00000000000000 ((_ extract 49 0) TMP_BV_64))
(ite (= ((_ extract 7 0) rdx) #x31)
(concat #b000000000000000 ((_ extract 48 0) TMP_BV_64))
a!24))))
(let ((a!26 (ite (= ((_ extract 7 0) rdx) #x34)
(concat #x000 ((_ extract 51 0) TMP_BV_64))
(ite (= ((_ extract 7 0) rdx) #x33)
(concat #b0000000000000 ((_ extract 50 0) TMP_BV_64))
a!25))))
(let ((a!27 (ite (= ((_ extract 7 0) rdx) #x36)
(concat #b0000000000 ((_ extract 53 0) TMP_BV_64))
(ite (= ((_ extract 7 0) rdx) #x35)
(concat #b00000000000 ((_ extract 52 0) TMP_BV_64))
a!26))))
(let ((a!28 (ite (= ((_ extract 7 0) rdx) #x38)
(concat #x00 ((_ extract 55 0) TMP_BV_64))
(ite (= ((_ extract 7 0) rdx) #x37)
(concat #b000000000 ((_ extract 54 0) TMP_BV_64))
a!27))))
(let ((a!29 (ite (= ((_ extract 7 0) rdx) #x3a)
(concat #b000000 ((_ extract 57 0) TMP_BV_64))
(ite (= ((_ extract 7 0) rdx) #x39)
(concat #b0000000 ((_ extract 56 0) TMP_BV_64))
a!28))))
(let ((a!30 (ite (= ((_ extract 7 0) rdx) #x3c)
(concat #x0 ((_ extract 59 0) TMP_BV_64))
(ite (= ((_ extract 7 0) rdx) #x3b)
(concat #b00000 ((_ extract 58 0) TMP_BV_64))
a!29))))
(let ((a!31 (ite (= ((_ extract 7 0) rdx) #x3e)
(concat #b00 ((_ extract 61 0) TMP_BV_64))
(ite (= ((_ extract 7 0) rdx) #x3d)
(concat #b000 ((_ extract 60 0) TMP_BV_64))
a!30))))
(let ((a!32 (ite (bvult ((_ extract 7 0) rdx) #x40)
(ite (= ((_ extract 7 0) rdx) #x3f)
(concat #b0 ((_ extract 62 0) TMP_BV_64))
a!31)
TMP_BV_64)))
(= a!32 #x0000000000000000)))))))))))))))))))))))))))))))))

(let ((a!1 (ite (= ((_ extract 7 0) rdx) #x02)
(concat #b00000000000000000000000000000000000000000000000000000000000000
((_ extract 1 0) TMP_BV_64))
(ite (= ((_ extract 7 0) rdx) #x01)
(concat #b000000000000000000000000000000000000000000000000000000000000000
((_ extract 0 0) TMP_BV_64))
#x0000000000000000))))
(let ((a!2 (ite (= ((_ extract 7 0) rdx) #x04)
(concat #x000000000000000 ((_ extract 3 0) TMP_BV_64))
(ite (= ((_ extract 7 0) rdx) #x03)
(concat #b0000000000000000000000000000000000000000000000000000000000000
((_ extract 2 0) TMP_BV_64))
a!1))))
(let ((a!3 (ite (= ((_ extract 7 0) rdx) #x06)
(concat #b0000000000000000000000000000000000000000000000000000000000
((_ extract 5 0) TMP_BV_64))
(ite (= ((_ extract 7 0) rdx) #x05)
(concat #b00000000000000000000000000000000000000000000000000000000000
((_ extract 4 0) TMP_BV_64))
a!2))))
(let ((a!4 (ite (= ((_ extract 7 0) rdx) #x08)
(concat #x00000000000000 ((_ extract 7 0) TMP_BV_64))
(ite (= ((_ extract 7 0) rdx) #x07)
(concat #b000000000000000000000000000000000000000000000000000000000
((_ extract 6 0) TMP_BV_64))
a!3))))
(let ((a!5 (ite (= ((_ extract 7 0) rdx) #x0a)
(concat #b000000000000000000000000000000000000000000000000000000
((_ extract 9 0) TMP_BV_64))
(ite (= ((_ extract 7 0) rdx) #x09)
(concat #b0000000000000000000000000000000000000000000000000000000
((_ extract 8 0) TMP_BV_64))
a!4))))
(let ((a!6 (ite (= ((_ extract 7 0) rdx) #x0c)
(concat #x0000000000000 ((_ extract 11 0) TMP_BV_64))
(ite (= ((_ extract 7 0) rdx) #x0b)
(concat #b00000000000000000000000000000000000000000000000000000
((_ extract 10 0) TMP_BV_64))
a!5))))
(let ((a!7 (ite (= ((_ extract 7 0) rdx) #x0e)
(concat #b00000000000000000000000000000000000000000000000000
((_ extract 13 0) TMP_BV_64))
(ite (= ((_ extract 7 0) rdx) #x0d)
(concat #b000000000000000000000000000000000000000000000000000
((_ extract 12 0) TMP_BV_64))
a!6))))
(let ((a!8 (ite (= ((_ extract 7 0) rdx) #x10)
(concat #x000000000000 ((_ extract 15 0) TMP_BV_64))
(ite (= ((_ extract 7 0) rdx) #x0f)
(concat #b0000000000000000000000000000000000000000000000000
((_ extract 14 0) TMP_BV_64))
a!7))))
(let ((a!9 (ite (= ((_ extract 7 0) rdx) #x12)
(concat #b0000000000000000000000000000000000000000000000
((_ extract 17 0) TMP_BV_64))
(ite (= ((_ extract 7 0) rdx) #x11)
(concat #b00000000000000000000000000000000000000000000000
((_ extract 16 0) TMP_BV_64))
a!8))))
(let ((a!10 (ite (= ((_ extract 7 0) rdx) #x14)
(concat #x00000000000 ((_ extract 19 0) TMP_BV_64))
(ite (= ((_ extract 7 0) rdx) #x13)
(concat #b000000000000000000000000000000000000000000000
((_ extract 18 0) TMP_BV_64))
a!9))))
(let ((a!11 (ite (= ((_ extract 7 0) rdx) #x16)
(concat #b000000000000000000000000000000000000000000
((_ extract 21 0) TMP_BV_64))
(ite (= ((_ extract 7 0) rdx) #x15)
(concat #b0000000000000000000000000000000000000000000
((_ extract 20 0) TMP_BV_64))
a!10))))
(let ((a!12 (ite (= ((_ extract 7 0) rdx) #x18)
(concat #x0000000000 ((_ extract 23 0) TMP_BV_64))
(ite (= ((_ extract 7 0) rdx) #x17)
(concat #b00000000000000000000000000000000000000000
((_ extract 22 0) TMP_BV_64))
a!11))))
(let ((a!13 (ite (= ((_ extract 7 0) rdx) #x1a)
(concat #b00000000000000000000000000000000000000
((_ extract 25 0) TMP_BV_64))
(ite (= ((_ extract 7 0) rdx) #x19)
(concat #b000000000000000000000000000000000000000
((_ extract 24 0) TMP_BV_64))
a!12))))
(let ((a!14 (ite (= ((_ extract 7 0) rdx) #x1c)
(concat #x000000000 ((_ extract 27 0) TMP_BV_64))
(ite (= ((_ extract 7 0) rdx) #x1b)
(concat #b0000000000000000000000000000000000000
((_ extract 26 0) TMP_BV_64))
a!13))))
(let ((a!15 (ite (= ((_ extract 7 0) rdx) #x1e)
(concat #b0000000000000000000000000000000000
((_ extract 29 0) TMP_BV_64))
(ite (= ((_ extract 7 0) rdx) #x1d)
(concat #b00000000000000000000000000000000000
((_ extract 28 0) TMP_BV_64))
a!14))))
(let ((a!16 (ite (= ((_ extract 7 0) rdx) #x20)
(concat #x00000000 ((_ extract 31 0) TMP_BV_64))
(ite (= ((_ extract 7 0) rdx) #x1f)
(concat #b000000000000000000000000000000000
((_ extract 30 0) TMP_BV_64))
a!15))))
(let ((a!17 (ite (= ((_ extract 7 0) rdx) #x22)
(concat #b000000000000000000000000000000
((_ extract 33 0) TMP_BV_64))
(ite (= ((_ extract 7 0) rdx) #x21)
(concat #b0000000000000000000000000000000
((_ extract 32 0) TMP_BV_64))
a!16))))
(let ((a!18 (ite (= ((_ extract 7 0) rdx) #x24)
(concat #x0000000 ((_ extract 35 0) TMP_BV_64))
(ite (= ((_ extract 7 0) rdx) #x23)
(concat #b00000000000000000000000000000
((_ extract 34 0) TMP_BV_64))
a!17))))
(let ((a!19 (ite (= ((_ extract 7 0) rdx) #x26)
(concat #b00000000000000000000000000
((_ extract 37 0) TMP_BV_64))
(ite (= ((_ extract 7 0) rdx) #x25)
(concat #b000000000000000000000000000
((_ extract 36 0) TMP_BV_64))
a!18))))
(let ((a!20 (ite (= ((_ extract 7 0) rdx) #x28)
(concat #x000000 ((_ extract 39 0) TMP_BV_64))
(ite (= ((_ extract 7 0) rdx) #x27)
(concat #b0000000000000000000000000
((_ extract 38 0) TMP_BV_64))
a!19))))
(let ((a!21 (ite (= ((_ extract 7 0) rdx) #x2a)
(concat #b0000000000000000000000
((_ extract 41 0) TMP_BV_64))
(ite (= ((_ extract 7 0) rdx) #x29)
(concat #b00000000000000000000000
((_ extract 40 0) TMP_BV_64))
a!20))))
(let ((a!22 (ite (= ((_ extract 7 0) rdx) #x2c)
(concat #x00000 ((_ extract 43 0) TMP_BV_64))
(ite (= ((_ extract 7 0) rdx) #x2b)
(concat #b000000000000000000000
((_ extract 42 0) TMP_BV_64))
a!21))))
(let ((a!23 (ite (= ((_ extract 7 0) rdx) #x2e)
(concat #b000000000000000000 ((_ extract 45 0) TMP_BV_64))
(ite (= ((_ extract 7 0) rdx) #x2d)
(concat #b0000000000000000000
((_ extract 44 0) TMP_BV_64))
a!22))))
(let ((a!24 (ite (= ((_ extract 7 0) rdx) #x30)
(concat #x0000 ((_ extract 47 0) TMP_BV_64))
(ite (= ((_ extract 7 0) rdx) #x2f)
(concat #b00000000000000000
((_ extract 46 0) TMP_BV_64))
a!23))))
(let ((a!25 (ite (= ((_ extract 7 0) rdx) #x32)
(concat #b00000000000000 ((_ extract 49 0) TMP_BV_64))
(ite (= ((_ extract 7 0) rdx) #x31)
(concat #b000000000000000 ((_ extract 48 0) TMP_BV_64))
a!24))))
(let ((a!26 (ite (= ((_ extract 7 0) rdx) #x34)
(concat #x000 ((_ extract 51 0) TMP_BV_64))
(ite (= ((_ extract 7 0) rdx) #x33)
(concat #b0000000000000 ((_ extract 50 0) TMP_BV_64))
a!25))))
(let ((a!27 (ite (= ((_ extract 7 0) rdx) #x36)
(concat #b0000000000 ((_ extract 53 0) TMP_BV_64))
(ite (= ((_ extract 7 0) rdx) #x35)
(concat #b00000000000 ((_ extract 52 0) TMP_BV_64))
a!26))))
(let ((a!28 (ite (= ((_ extract 7 0) rdx) #x38)
(concat #x00 ((_ extract 55 0) TMP_BV_64))
(ite (= ((_ extract 7 0) rdx) #x37)
(concat #b000000000 ((_ extract 54 0) TMP_BV_64))
a!27))))
(let ((a!29 (ite (= ((_ extract 7 0) rdx) #x3a)
(concat #b000000 ((_ extract 57 0) TMP_BV_64))
(ite (= ((_ extract 7 0) rdx) #x39)
(concat #b0000000 ((_ extract 56 0) TMP_BV_64))
a!28))))
(let ((a!30 (ite (= ((_ extract 7 0) rdx) #x3c)
(concat #x0 ((_ extract 59 0) TMP_BV_64))
(ite (= ((_ extract 7 0) rdx) #x3b)
(concat #b00000 ((_ extract 58 0) TMP_BV_64))
a!29))))
(let ((a!31 (ite (= ((_ extract 7 0) rdx) #x3e)
(concat #b00 ((_ extract 61 0) TMP_BV_64))
(ite (= ((_ extract 7 0) rdx) #x3d)
(concat #b000 ((_ extract 60 0) TMP_BV_64))
a!30))))
(let ((a!32 (ite (bvult ((_ extract 7 0) rdx) #x40)
(ite (= ((_ extract 7 0) rdx) #x3f)
(concat #b0 ((_ extract 62 0) TMP_BV_64))
a!31)
TMP_BV_64)))
(= a!32 #x0000000000000000)))))))))))))))))))))))))))))))))
)))
(check-sat)
( pop )



